c description: Tseitin formula on Random 3-regular graph of 10 vertices, with odd charge
c generator: CNFgen (0.9.1)
c copyright: (C) 2012-2022 Massimo Lauria <massimo.lauria@uniroma1.it>
c url: https://massimolauria.net/cnfgen
c command line: cnfgen tseitin 10 3
c
p cnf 15 40
1 2 3 0
1 -2 -3 0
-1 2 -3 0
-1 -2 3 0
1 4 5 0
1 -4 -5 0
-1 4 -5 0
-1 -4 5 0
6 7 8 0
6 -7 -8 0
-6 7 -8 0
-6 -7 8 0
2 4 -9 0
2 -4 9 0
-2 4 9 0
-2 -4 -9 0
6 10 11 0
6 -10 -11 0
-6 10 -11 0
-6 -10 11 0
3 7 -12 0
3 -7 12 0
-3 7 12 0
-3 -7 -12 0
12 13 -14 0
12 -13 14 0
-12 13 14 0
-12 -13 -14 0
5 13 15 0
5 -13 -15 0
-5 13 -15 0
-5 -13 15 0
8 10 15 0
8 -10 -15 0
-8 10 -15 0
-8 -10 15 0
9 11 14 0
9 -11 -14 0
-9 11 -14 0
-9 -11 14 0
